;--------------------------------------------------------------------------
; Benchmark created with Zazu
; Benchmark: 		simpleloop_norm_inv1_2xlen2
; Created:   		2022-01-11 18:12
; Generator of the ideal: 
; 		 x - y00 - x00 + y
; Testing invariant: -x*x00*y^2 - x^5*x00*y^4 - x^3*y^4 + x^2*y^2 + x^4*x00*y^2 - x^4*y^3 + x^2*y^4*y00 + x^5*y^5 - x^2*y^5 + x*y^3 - x*y^2*y00 - x^5*y^2 + x^6*y^4 - x^5*y^4*y00 + x^2*x00*y^4 + x^4*y^2*y00
;--------------------------------------------------------------------------

(set-logic NIA)
(set-option :produce-proofs true)

(declare-const x00 Int)
(declare-const y00 Int)

(assert 
	(exists
		((x Int) (y Int))
		(and
			(= (+ (- x y00 x00) y) 0)

			(or
				(not (= (+ (- (+ (- (+ (- (+ (- (+ (- (* (- 1) (- x 1) x00 (+ y 1) (+ y 1)) (* (- x 1) (- x 1) (- x 1) (- x 1) (- x 1) x00 (+ y 1) (+ y 1) (+ y 1) (+ y 1)) (* (- x 1) (- x 1) (- x 1) (+ y 1) (+ y 1) (+ y 1) (+ y 1))) (* (- x 1) (- x 1) (+ y 1) (+ y 1)) (* (- x 1) (- x 1) (- x 1) (- x 1) x00 (+ y 1) (+ y 1))) (* (- x 1) (- x 1) (- x 1) (- x 1) (+ y 1) (+ y 1) (+ y 1))) (* (- x 1) (- x 1) (+ y 1) (+ y 1) (+ y 1) (+ y 1) y00) (* (- x 1) (- x 1) (- x 1) (- x 1) (- x 1) (+ y 1) (+ y 1) (+ y 1) (+ y 1) (+ y 1))) (* (- x 1) (- x 1) (+ y 1) (+ y 1) (+ y 1) (+ y 1) (+ y 1))) (* (- x 1) (+ y 1) (+ y 1) (+ y 1))) (* (- x 1) (+ y 1) (+ y 1) y00) (* (- x 1) (- x 1) (- x 1) (- x 1) (- x 1) (+ y 1) (+ y 1))) (* (- x 1) (- x 1) (- x 1) (- x 1) (- x 1) (- x 1) (+ y 1) (+ y 1) (+ y 1) (+ y 1))) (* (- x 1) (- x 1) (- x 1) (- x 1) (- x 1) (+ y 1) (+ y 1) (+ y 1) (+ y 1) y00)) (* (- x 1) (- x 1) x00 (+ y 1) (+ y 1) (+ y 1) (+ y 1)) (* (- x 1) (- x 1) (- x 1) (- x 1) (+ y 1) (+ y 1) y00)) 0))
			)
		)
	)
)
(check-sat)
(get-proof)
(exit)
